proyfinal/src/viki/013/experimentInOfficeAgust.take6.output/cbaeea70-0684-4df2-83a7-7e4195f4d521.als.dat
{'cnf.clauses': '118081',
 'cnf.totvars': '69608',
 'conflict literals': '34',
 'conflicts': '14',
 'decisions': '8676',
 'memused.mb': '16.67',
 'outcome': 'UNSAT',
 'propagations': '38281',
 'restarts': '1',
 'solver.msecs': 33,
 'task.msecs': 90}
