proyfinal/src/viki/013/experimentInOfficeAgust.take6.output/cbaeea70-0684-4df2-83a7-7e4195f4d521.als.out
Reading from standard input... Use '--help' for help.
============================[ Problem Statistics ]=============================
|                                                                             |
|  Number of variables:         69608                                         |
|  Number of clauses:          118081                                         |
|  Parse time:                   0.03 s                                       |
|                                                                             |
============================[ Search Statistics ]==============================
| Conflicts |          ORIGINAL         |          LEARNT          | Progress |
|           |    Vars  Clauses Literals |    Limit  Clauses Lit/Cl |          |
===============================================================================
===============================================================================
restarts              : 1
conflicts             : 14             (414 /sec)
decisions             : 8676           (0.00 % random) (256474 /sec)
propagations          : 38281          (1131637 /sec)
conflict literals     : 34             (0.00 % deleted)
Memory used           : 16.67 MB
CPU time              : 0.033828 s

UNSATISFIABLE
